data;
set K:= K1 K2 K3 K4 K5 K6 K7 K8 K9 K10 K11 K12 K13 K14 K15 ;

set F:= F1 F2 F3 ;

set Q:= Q1 Q2 ;

param T:= 45;
param V: 
	K1  K2  K3  K4  K5  K6  K7  K8  K9  K10 K11 K12 K13 K14 K15 :=
Q1	1   1   1   1   1   1   1   1   1   0   0   0   0   0   0   
Q2	0   0   0   0   0   0   0   0   0   1   1   1   1   1   1   
; # if resorce k is of type q

param TF:= 
K1 6
K2 6
K3 6
K4 6
K5 6
K6 6
K7 6
K8 6
K9 6
K10 12
K11 12
K12 12
K13 12
K14 12
K15 12
; # number of continuous time slots resource can fly

param TR:= 
K1 2
K2 2
K3 2
K4 2
K5 2
K6 2
K7 2
K8 2
K9 2
K10 4
K11 4
K12 4
K13 4
K14 4
K15 4
; #  number of continuous time slots resource k needs to rest between flights

param P:= 
K1 36
K2 36
K3 36
K4 36
K5 36
K6 36
K7 36
K8 36
K9 36
K10 36
K11 36
K12 36
K13 36
K14 36
K15 36
; #  number of continuous time slots a pilot can be present including rest times for resource k 

param N:= 
K1 4
K2 4
K3 4
K4 4
K5 4
K6 4
K7 4
K8 4
K9 4
K10 2
K11 2
K12 1
K13 2
K14 2
K15 2
; # max number of flights resource k can fly in the total time period

param A: 
	K1  K2  K3  K4  K5  K6  K7  K8  K9  K10 K11 K12 K13 K14 K15 :=
1	1   1   1   1   1   1   1   1   1   1   1   1   1   1   1   
2	1   1   1   1   1   1   1   1   1   1   1   1   1   1   1   
3	1   1   1   1   1   1   1   1   1   1   1   1   1   1   1   
4	1   1   1   1   1   1   1   1   1   1   1   1   1   1   1   
5	1   1   1   1   1   1   1   1   1   1   1   1   1   1   1   
6	1   1   1   1   1   1   1   1   1   1   1   1   1   1   1   
7	1   1   1   1   1   1   1   1   1   1   1   1   1   1   1   
8	1   1   1   1   1   1   1   1   1   1   1   1   1   1   1   
9	1   1   1   1   1   1   1   1   1   1   1   1   1   1   1   
10	1   1   1   1   1   1   1   1   1   1   1   1   1   1   1   
11	1   1   1   1   1   1   1   1   1   1   1   1   1   1   1   
12	1   1   1   1   1   1   1   1   1   1   1   1   1   1   1   
13	1   1   1   1   1   1   1   1   1   1   1   1   1   1   1   
14	1   1   1   1   1   1   1   1   1   1   1   1   1   1   1   
15	1   1   1   1   1   1   1   1   1   1   1   1   1   1   1   
16	1   1   1   1   1   1   1   1   1   1   1   1   1   1   1   
17	1   1   1   1   1   1   1   1   1   1   1   1   1   1   1   
18	1   1   1   1   1   1   1   1   1   1   1   1   1   1   1   
19	1   1   1   1   1   1   1   1   1   1   1   1   1   1   1   
20	1   1   1   1   1   1   1   1   1   1   1   1   1   1   1   
21	1   1   1   1   1   1   1   1   1   1   1   1   1   1   1   
22	1   1   1   1   1   1   1   1   1   1   1   1   1   1   1   
23	1   1   1   1   1   1   1   1   1   1   1   1   1   1   1   
24	1   1   1   1   1   1   1   1   1   1   1   1   1   1   1   
25	1   1   1   1   1   1   1   1   1   1   1   1   1   1   1   
26	1   1   1   1   1   1   1   1   1   1   1   1   1   1   1   
27	1   1   1   1   1   1   1   1   1   1   1   1   1   1   1   
28	1   1   1   1   1   1   1   1   1   1   1   1   1   1   1   
29	1   1   1   1   1   1   1   1   1   1   1   1   1   1   1   
30	1   1   1   1   1   1   1   1   1   1   1   1   1   1   1   
31	1   1   1   1   1   1   1   1   1   1   1   1   1   1   1   
32	1   1   1   1   1   1   1   1   1   1   1   1   1   1   1   
33	1   1   1   1   1   1   1   1   1   1   1   1   1   1   1   
34	1   1   1   1   1   1   1   1   1   1   1   1   1   1   1   
35	1   1   1   1   1   1   1   1   1   1   1   1   1   1   1   
36	1   1   1   1   1   1   1   1   1   1   1   1   1   1   1   
37	1   1   1   1   1   1   1   1   1   1   1   1   1   1   1   
38	1   1   1   1   1   1   1   1   1   1   1   0   1   1   1   
39	1   1   1   1   1   1   1   1   1   1   1   0   1   1   1   
40	1   1   1   1   1   1   1   1   1   1   1   0   1   1   1   
41	1   1   1   1   1   1   1   1   1   1   1   0   1   1   1   
42	1   1   1   1   1   1   1   1   1   1   1   0   1   1   1   
43	1   1   1   1   1   1   1   1   1   1   1   0   1   1   1   
44	1   1   1   1   1   1   1   1   1   1   1   0   1   1   1   
45	1   1   1   1   1   1   1   1   1   1   1   0   1   1   1   
; # availability of resorce k in time slot t

param B: 
	F1  F2  F3  :=
Q1	0   0   0   
Q2	0   0   0   
; # if front f requires resources of type q

param U: 
	F1  F2  F3  :=
K1	0   0   0   
K2	0   0   0   
K3	0   0   0   
K4	0   0   0   
K5	0   0   0   
K6	0   0   0   
K7	0   0   0   
K8	0   0   0   
K9	0   0   0   
K10	2   2   2   
K11	0   0   0   
K12	0   0   0   
K13	1   1   1   
K14	1   1   1   
K15	2   2   2   
; # transit time of resource

param C:= 
K1 900
K2 900
K3 900
K4 900
K5 900
K6 1500
K7 1500
K8 4500
K9 4500
K10 5500
K11 5500
K12 5500
K13 5500
K14 5500
K15 5500
; #  water capacity of resource k

param S:= 
F1 10
F2 7
F3 10
; # max number of resources that can fly at front f in the same time slot

param D:= 

[*,*,F1 ]:  K1    K2    K3    K4    K5    K6    K7    K8    K9    K10   K11   K12   K13   K14   K15   :=
1           1.77  1.77  1.77  1.77  1.77  1.77  1.77  1.41  1.41  1.06  1.06  1.06  1.06  1.06  1.06  
2           1.77  1.77  1.77  1.77  1.77  1.77  1.77  1.41  1.41  1.06  1.06  1.06  1.06  1.06  1.06  
3           1.77  1.77  1.77  1.77  1.77  1.77  1.77  1.41  1.41  1.06  1.06  1.06  1.06  1.06  1.06  
4           1.77  1.77  1.77  1.77  1.77  1.77  1.77  1.41  1.41  1.06  1.06  1.06  1.06  1.06  1.06  
5           1.77  1.77  1.77  1.77  1.77  1.77  1.77  1.41  1.41  1.06  1.06  1.06  1.06  1.06  1.06  
6           1.77  1.77  1.77  1.77  1.77  1.77  1.77  1.41  1.41  1.06  1.06  1.06  1.06  1.06  1.06  
7           1.77  1.77  1.77  1.77  1.77  1.77  1.77  1.41  1.41  1.06  1.06  1.06  1.06  1.06  1.06  
8           1.77  1.77  1.77  1.77  1.77  1.77  1.77  1.41  1.41  1.06  1.06  1.06  1.06  1.06  1.06  
9           1.77  1.77  1.77  1.77  1.77  1.77  1.77  1.41  1.41  1.06  1.06  1.06  1.06  1.06  1.06  
10          1.77  1.77  1.77  1.77  1.77  1.77  1.77  1.41  1.41  1.06  1.06  1.06  1.06  1.06  1.06  
11          1.77  1.77  1.77  1.77  1.77  1.77  1.77  1.41  1.41  1.06  1.06  1.06  1.06  1.06  1.06  
12          1.77  1.77  1.77  1.77  1.77  1.77  1.77  1.41  1.41  1.06  1.06  1.06  1.06  1.06  1.06  
13          1.77  1.77  1.77  1.77  1.77  1.77  1.77  1.41  1.41  1.06  1.06  1.06  1.06  1.06  1.06  
14          1.77  1.77  1.77  1.77  1.77  1.77  1.77  1.41  1.41  1.06  1.06  1.06  1.06  1.06  1.06  
15          1.77  1.77  1.77  1.77  1.77  1.77  1.77  1.41  1.41  1.06  1.06  1.06  1.06  1.06  1.06  
16          1.77  1.77  1.77  1.77  1.77  1.77  1.77  1.41  1.41  1.06  1.06  1.06  1.06  1.06  1.06  
17          1.77  1.77  1.77  1.77  1.77  1.77  1.77  1.41  1.41  1.06  1.06  1.06  1.06  1.06  1.06  
18          1.77  1.77  1.77  1.77  1.77  1.77  1.77  1.41  1.41  1.06  1.06  1.06  1.06  1.06  1.06  
19          1.77  1.77  1.77  1.77  1.77  1.77  1.77  1.41  1.41  1.06  1.06  1.06  1.06  1.06  1.06  
20          1.77  1.77  1.77  1.77  1.77  1.77  1.77  1.41  1.41  1.06  1.06  1.06  1.06  1.06  1.06  
21          1.77  1.77  1.77  1.77  1.77  1.77  1.77  1.41  1.41  1.06  1.06  1.06  1.06  1.06  1.06  
22          1.77  1.77  1.77  1.77  1.77  1.77  1.77  1.41  1.41  1.06  1.06  1.06  1.06  1.06  1.06  
23          1.77  1.77  1.77  1.77  1.77  1.77  1.77  1.41  1.41  1.06  1.06  1.06  1.06  1.06  1.06  
24          1.77  1.77  1.77  1.77  1.77  1.77  1.77  1.41  1.41  1.06  1.06  1.06  1.06  1.06  1.06  
25          1.68  1.68  1.68  1.68  1.68  1.68  1.68  1.34  1.34  1.01  1.01  1.01  1.01  1.01  1.01  
26          1.68  1.68  1.68  1.68  1.68  1.68  1.68  1.34  1.34  1.01  1.01  1.01  1.01  1.01  1.01  
27          1.68  1.68  1.68  1.68  1.68  1.68  1.68  1.34  1.34  1.01  1.01  1.01  1.01  1.01  1.01  
28          1.68  1.68  1.68  1.68  1.68  1.68  1.68  1.34  1.34  1.01  1.01  1.01  1.01  1.01  1.01  
29          1.68  1.68  1.68  1.68  1.68  1.68  1.68  1.34  1.34  1.01  1.01  1.01  1.01  1.01  1.01  
30          1.68  1.68  1.68  1.68  1.68  1.68  1.68  1.34  1.34  1.01  1.01  1.01  1.01  1.01  1.01  
31          1.68  1.68  1.68  1.68  1.68  1.68  1.68  1.34  1.34  1.01  1.01  1.01  1.01  1.01  1.01  
32          1.68  1.68  1.68  1.68  1.68  1.68  1.68  1.34  1.34  1.01  1.01  1.01  1.01  1.01  1.01  
33          1.68  1.68  1.68  1.68  1.68  1.68  1.68  1.34  1.34  1.01  1.01  1.01  1.01  1.01  1.01  
34          1.77  1.77  1.77  1.77  1.77  1.77  1.77  1.41  1.41  1.06  1.06  1.06  1.06  1.06  1.06  
35          1.77  1.77  1.77  1.77  1.77  1.77  1.77  1.41  1.41  1.06  1.06  1.06  1.06  1.06  1.06  
36          1.77  1.77  1.77  1.77  1.77  1.77  1.77  1.41  1.41  1.06  1.06  1.06  1.06  1.06  1.06  
37          1.77  1.77  1.77  1.77  1.77  1.77  1.77  1.41  1.41  1.06  1.06  1.06  1.06  1.06  1.06  
38          1.77  1.77  1.77  1.77  1.77  1.77  1.77  1.41  1.41  1.06  1.06  1.06  1.06  1.06  1.06  
39          1.77  1.77  1.77  1.77  1.77  1.77  1.77  1.41  1.41  1.06  1.06  1.06  1.06  1.06  1.06  
40          1.77  1.77  1.77  1.77  1.77  1.77  1.77  1.41  1.41  1.06  1.06  1.06  1.06  1.06  1.06  
41          1.77  1.77  1.77  1.77  1.77  1.77  1.77  1.41  1.41  1.06  1.06  1.06  1.06  1.06  1.06  
42          1.77  1.77  1.77  1.77  1.77  1.77  1.77  1.41  1.41  1.06  1.06  1.06  1.06  1.06  1.06  
43          1.77  1.77  1.77  1.77  1.77  1.77  1.77  1.41  1.41  1.06  1.06  1.06  1.06  1.06  1.06  
44          1.77  1.77  1.77  1.77  1.77  1.77  1.77  1.41  1.41  1.06  1.06  1.06  1.06  1.06  1.06  
45          1.77  1.77  1.77  1.77  1.77  1.77  1.77  1.41  1.41  1.06  1.06  1.06  1.06  1.06  1.06  

[*,*,F2 ]:  K1    K2    K3    K4    K5    K6    K7    K8    K9    K10   K11   K12   K13   K14   K15   :=
1           1.40  1.40  1.40  1.40  1.40  1.40  1.40  1.12  1.12  0.84  0.84  0.84  0.84  0.84  0.84  
2           1.40  1.40  1.40  1.40  1.40  1.40  1.40  1.12  1.12  0.84  0.84  0.84  0.84  0.84  0.84  
3           1.40  1.40  1.40  1.40  1.40  1.40  1.40  1.12  1.12  0.84  0.84  0.84  0.84  0.84  0.84  
4           1.40  1.40  1.40  1.40  1.40  1.40  1.40  1.12  1.12  0.84  0.84  0.84  0.84  0.84  0.84  
5           1.40  1.40  1.40  1.40  1.40  1.40  1.40  1.12  1.12  0.84  0.84  0.84  0.84  0.84  0.84  
6           1.40  1.40  1.40  1.40  1.40  1.40  1.40  1.12  1.12  0.84  0.84  0.84  0.84  0.84  0.84  
7           1.40  1.40  1.40  1.40  1.40  1.40  1.40  1.12  1.12  0.84  0.84  0.84  0.84  0.84  0.84  
8           1.40  1.40  1.40  1.40  1.40  1.40  1.40  1.12  1.12  0.84  0.84  0.84  0.84  0.84  0.84  
9           1.40  1.40  1.40  1.40  1.40  1.40  1.40  1.12  1.12  0.84  0.84  0.84  0.84  0.84  0.84  
10          1.40  1.40  1.40  1.40  1.40  1.40  1.40  1.12  1.12  0.84  0.84  0.84  0.84  0.84  0.84  
11          1.40  1.40  1.40  1.40  1.40  1.40  1.40  1.12  1.12  0.84  0.84  0.84  0.84  0.84  0.84  
12          1.40  1.40  1.40  1.40  1.40  1.40  1.40  1.12  1.12  0.84  0.84  0.84  0.84  0.84  0.84  
13          1.40  1.40  1.40  1.40  1.40  1.40  1.40  1.12  1.12  0.84  0.84  0.84  0.84  0.84  0.84  
14          1.40  1.40  1.40  1.40  1.40  1.40  1.40  1.12  1.12  0.84  0.84  0.84  0.84  0.84  0.84  
15          1.40  1.40  1.40  1.40  1.40  1.40  1.40  1.12  1.12  0.84  0.84  0.84  0.84  0.84  0.84  
16          1.40  1.40  1.40  1.40  1.40  1.40  1.40  1.12  1.12  0.84  0.84  0.84  0.84  0.84  0.84  
17          1.40  1.40  1.40  1.40  1.40  1.40  1.40  1.12  1.12  0.84  0.84  0.84  0.84  0.84  0.84  
18          1.40  1.40  1.40  1.40  1.40  1.40  1.40  1.12  1.12  0.84  0.84  0.84  0.84  0.84  0.84  
19          1.40  1.40  1.40  1.40  1.40  1.40  1.40  1.12  1.12  0.84  0.84  0.84  0.84  0.84  0.84  
20          1.40  1.40  1.40  1.40  1.40  1.40  1.40  1.12  1.12  0.84  0.84  0.84  0.84  0.84  0.84  
21          1.40  1.40  1.40  1.40  1.40  1.40  1.40  1.12  1.12  0.84  0.84  0.84  0.84  0.84  0.84  
22          1.40  1.40  1.40  1.40  1.40  1.40  1.40  1.12  1.12  0.84  0.84  0.84  0.84  0.84  0.84  
23          1.40  1.40  1.40  1.40  1.40  1.40  1.40  1.12  1.12  0.84  0.84  0.84  0.84  0.84  0.84  
24          1.40  1.40  1.40  1.40  1.40  1.40  1.40  1.12  1.12  0.84  0.84  0.84  0.84  0.84  0.84  
25          1.33  1.33  1.33  1.33  1.33  1.33  1.33  1.06  1.06  0.80  0.80  0.80  0.80  0.80  0.80  
26          1.33  1.33  1.33  1.33  1.33  1.33  1.33  1.06  1.06  0.80  0.80  0.80  0.80  0.80  0.80  
27          1.33  1.33  1.33  1.33  1.33  1.33  1.33  1.06  1.06  0.80  0.80  0.80  0.80  0.80  0.80  
28          1.33  1.33  1.33  1.33  1.33  1.33  1.33  1.06  1.06  0.80  0.80  0.80  0.80  0.80  0.80  
29          1.33  1.33  1.33  1.33  1.33  1.33  1.33  1.06  1.06  0.80  0.80  0.80  0.80  0.80  0.80  
30          1.33  1.33  1.33  1.33  1.33  1.33  1.33  1.06  1.06  0.80  0.80  0.80  0.80  0.80  0.80  
31          1.33  1.33  1.33  1.33  1.33  1.33  1.33  1.06  1.06  0.80  0.80  0.80  0.80  0.80  0.80  
32          1.33  1.33  1.33  1.33  1.33  1.33  1.33  1.06  1.06  0.80  0.80  0.80  0.80  0.80  0.80  
33          1.33  1.33  1.33  1.33  1.33  1.33  1.33  1.06  1.06  0.80  0.80  0.80  0.80  0.80  0.80  
34          1.40  1.40  1.40  1.40  1.40  1.40  1.40  1.12  1.12  0.84  0.84  0.84  0.84  0.84  0.84  
35          1.40  1.40  1.40  1.40  1.40  1.40  1.40  1.12  1.12  0.84  0.84  0.84  0.84  0.84  0.84  
36          1.40  1.40  1.40  1.40  1.40  1.40  1.40  1.12  1.12  0.84  0.84  0.84  0.84  0.84  0.84  
37          1.40  1.40  1.40  1.40  1.40  1.40  1.40  1.12  1.12  0.84  0.84  0.84  0.84  0.84  0.84  
38          1.40  1.40  1.40  1.40  1.40  1.40  1.40  1.12  1.12  0.84  0.84  0.84  0.84  0.84  0.84  
39          1.40  1.40  1.40  1.40  1.40  1.40  1.40  1.12  1.12  0.84  0.84  0.84  0.84  0.84  0.84  
40          1.40  1.40  1.40  1.40  1.40  1.40  1.40  1.12  1.12  0.84  0.84  0.84  0.84  0.84  0.84  
41          1.40  1.40  1.40  1.40  1.40  1.40  1.40  1.12  1.12  0.84  0.84  0.84  0.84  0.84  0.84  
42          1.40  1.40  1.40  1.40  1.40  1.40  1.40  1.12  1.12  0.84  0.84  0.84  0.84  0.84  0.84  
43          1.40  1.40  1.40  1.40  1.40  1.40  1.40  1.12  1.12  0.84  0.84  0.84  0.84  0.84  0.84  
44          1.40  1.40  1.40  1.40  1.40  1.40  1.40  1.12  1.12  0.84  0.84  0.84  0.84  0.84  0.84  
45          1.40  1.40  1.40  1.40  1.40  1.40  1.40  1.12  1.12  0.84  0.84  0.84  0.84  0.84  0.84  

[*,*,F3 ]:  K1    K2    K3    K4    K5    K6    K7    K8    K9    K10   K11   K12   K13   K14   K15   :=
1           1.39  1.39  1.39  1.39  1.39  1.39  1.39  1.10  1.10  0.83  0.83  0.83  0.83  0.83  0.83  
2           1.39  1.39  1.39  1.39  1.39  1.39  1.39  1.10  1.10  0.83  0.83  0.83  0.83  0.83  0.83  
3           1.39  1.39  1.39  1.39  1.39  1.39  1.39  1.10  1.10  0.83  0.83  0.83  0.83  0.83  0.83  
4           1.39  1.39  1.39  1.39  1.39  1.39  1.39  1.10  1.10  0.83  0.83  0.83  0.83  0.83  0.83  
5           1.39  1.39  1.39  1.39  1.39  1.39  1.39  1.10  1.10  0.83  0.83  0.83  0.83  0.83  0.83  
6           1.39  1.39  1.39  1.39  1.39  1.39  1.39  1.10  1.10  0.83  0.83  0.83  0.83  0.83  0.83  
7           1.39  1.39  1.39  1.39  1.39  1.39  1.39  1.10  1.10  0.83  0.83  0.83  0.83  0.83  0.83  
8           1.39  1.39  1.39  1.39  1.39  1.39  1.39  1.10  1.10  0.83  0.83  0.83  0.83  0.83  0.83  
9           1.39  1.39  1.39  1.39  1.39  1.39  1.39  1.10  1.10  0.83  0.83  0.83  0.83  0.83  0.83  
10          1.39  1.39  1.39  1.39  1.39  1.39  1.39  1.10  1.10  0.83  0.83  0.83  0.83  0.83  0.83  
11          1.39  1.39  1.39  1.39  1.39  1.39  1.39  1.10  1.10  0.83  0.83  0.83  0.83  0.83  0.83  
12          1.39  1.39  1.39  1.39  1.39  1.39  1.39  1.10  1.10  0.83  0.83  0.83  0.83  0.83  0.83  
13          1.39  1.39  1.39  1.39  1.39  1.39  1.39  1.10  1.10  0.83  0.83  0.83  0.83  0.83  0.83  
14          1.39  1.39  1.39  1.39  1.39  1.39  1.39  1.10  1.10  0.83  0.83  0.83  0.83  0.83  0.83  
15          1.39  1.39  1.39  1.39  1.39  1.39  1.39  1.10  1.10  0.83  0.83  0.83  0.83  0.83  0.83  
16          1.39  1.39  1.39  1.39  1.39  1.39  1.39  1.10  1.10  0.83  0.83  0.83  0.83  0.83  0.83  
17          1.39  1.39  1.39  1.39  1.39  1.39  1.39  1.10  1.10  0.83  0.83  0.83  0.83  0.83  0.83  
18          1.39  1.39  1.39  1.39  1.39  1.39  1.39  1.10  1.10  0.83  0.83  0.83  0.83  0.83  0.83  
19          1.39  1.39  1.39  1.39  1.39  1.39  1.39  1.10  1.10  0.83  0.83  0.83  0.83  0.83  0.83  
20          1.39  1.39  1.39  1.39  1.39  1.39  1.39  1.10  1.10  0.83  0.83  0.83  0.83  0.83  0.83  
21          1.39  1.39  1.39  1.39  1.39  1.39  1.39  1.10  1.10  0.83  0.83  0.83  0.83  0.83  0.83  
22          1.39  1.39  1.39  1.39  1.39  1.39  1.39  1.10  1.10  0.83  0.83  0.83  0.83  0.83  0.83  
23          1.39  1.39  1.39  1.39  1.39  1.39  1.39  1.10  1.10  0.83  0.83  0.83  0.83  0.83  0.83  
24          1.39  1.39  1.39  1.39  1.39  1.39  1.39  1.10  1.10  0.83  0.83  0.83  0.83  0.83  0.83  
25          1.32  1.32  1.32  1.32  1.32  1.32  1.32  1.05  1.05  0.79  0.79  0.79  0.79  0.79  0.79  
26          1.32  1.32  1.32  1.32  1.32  1.32  1.32  1.05  1.05  0.79  0.79  0.79  0.79  0.79  0.79  
27          1.32  1.32  1.32  1.32  1.32  1.32  1.32  1.05  1.05  0.79  0.79  0.79  0.79  0.79  0.79  
28          1.32  1.32  1.32  1.32  1.32  1.32  1.32  1.05  1.05  0.79  0.79  0.79  0.79  0.79  0.79  
29          1.32  1.32  1.32  1.32  1.32  1.32  1.32  1.05  1.05  0.79  0.79  0.79  0.79  0.79  0.79  
30          1.32  1.32  1.32  1.32  1.32  1.32  1.32  1.05  1.05  0.79  0.79  0.79  0.79  0.79  0.79  
31          1.32  1.32  1.32  1.32  1.32  1.32  1.32  1.05  1.05  0.79  0.79  0.79  0.79  0.79  0.79  
32          1.32  1.32  1.32  1.32  1.32  1.32  1.32  1.05  1.05  0.79  0.79  0.79  0.79  0.79  0.79  
33          1.32  1.32  1.32  1.32  1.32  1.32  1.32  1.05  1.05  0.79  0.79  0.79  0.79  0.79  0.79  
34          1.39  1.39  1.39  1.39  1.39  1.39  1.39  1.10  1.10  0.83  0.83  0.83  0.83  0.83  0.83  
35          1.39  1.39  1.39  1.39  1.39  1.39  1.39  1.10  1.10  0.83  0.83  0.83  0.83  0.83  0.83  
36          1.39  1.39  1.39  1.39  1.39  1.39  1.39  1.10  1.10  0.83  0.83  0.83  0.83  0.83  0.83  
37          1.39  1.39  1.39  1.39  1.39  1.39  1.39  1.10  1.10  0.83  0.83  0.83  0.83  0.83  0.83  
38          1.39  1.39  1.39  1.39  1.39  1.39  1.39  1.10  1.10  0.83  0.83  0.83  0.83  0.83  0.83  
39          1.39  1.39  1.39  1.39  1.39  1.39  1.39  1.10  1.10  0.83  0.83  0.83  0.83  0.83  0.83  
40          1.39  1.39  1.39  1.39  1.39  1.39  1.39  1.10  1.10  0.83  0.83  0.83  0.83  0.83  0.83  
41          1.39  1.39  1.39  1.39  1.39  1.39  1.39  1.10  1.10  0.83  0.83  0.83  0.83  0.83  0.83  
42          1.39  1.39  1.39  1.39  1.39  1.39  1.39  1.10  1.10  0.83  0.83  0.83  0.83  0.83  0.83  
43          1.39  1.39  1.39  1.39  1.39  1.39  1.39  1.10  1.10  0.83  0.83  0.83  0.83  0.83  0.83  
44          1.39  1.39  1.39  1.39  1.39  1.39  1.39  1.10  1.10  0.83  0.83  0.83  0.83  0.83  0.83  
45          1.39  1.39  1.39  1.39  1.39  1.39  1.39  1.10  1.10  0.83  0.83  0.83  0.83  0.83  0.83  
; # downloads resource k can do at front f in time t if intermediate time slot

param E:= 

[*,*,F1 ]:  K1    K2    K3    K4    K5    K6    K7    K8    K9    K10   K11   K12   K13   K14   K15   :=
1           0.97  0.07  0.09  0.21  0.62  0.80  0.67  0.24  0.13  0.00  0.06  0.04  0.40  0.07  0.26  
2           0.97  0.07  0.09  0.21  0.62  0.80  0.67  0.24  0.13  0.00  0.06  0.04  0.40  0.07  0.26  
3           0.97  0.07  0.09  0.21  0.62  0.80  0.67  0.24  0.13  0.00  0.06  0.04  0.40  0.07  0.26  
4           0.97  0.07  0.09  0.21  0.62  0.80  0.67  0.24  0.13  0.00  0.06  0.04  0.40  0.07  0.26  
5           0.97  0.07  0.09  0.21  0.62  0.80  0.67  0.24  0.13  0.00  0.06  0.04  0.40  0.07  0.26  
6           0.97  0.07  0.09  0.21  0.62  0.80  0.67  0.24  0.13  0.00  0.06  0.04  0.40  0.07  0.26  
7           0.97  0.07  0.09  0.21  0.62  0.80  0.67  0.24  0.13  0.00  0.06  0.04  0.40  0.07  0.26  
8           0.97  0.07  0.09  0.21  0.62  0.80  0.67  0.24  0.13  0.00  0.06  0.04  0.40  0.07  0.26  
9           0.97  0.07  0.09  0.21  0.62  0.80  0.67  0.24  0.13  0.00  0.06  0.04  0.40  0.07  0.26  
10          0.97  0.07  0.09  0.21  0.62  0.80  0.67  0.24  0.13  0.00  0.06  0.04  0.40  0.07  0.26  
11          0.97  0.07  0.09  0.21  0.62  0.80  0.67  0.24  0.13  0.00  0.06  0.04  0.40  0.07  0.26  
12          0.97  0.07  0.09  0.21  0.62  0.80  0.67  0.24  0.13  0.00  0.06  0.04  0.40  0.07  0.26  
13          0.97  0.07  0.09  0.21  0.62  0.80  0.67  0.24  0.13  0.00  0.06  0.04  0.40  0.07  0.26  
14          0.97  0.07  0.09  0.21  0.62  0.80  0.67  0.24  0.13  0.00  0.06  0.04  0.40  0.07  0.26  
15          0.97  0.07  0.09  0.21  0.62  0.80  0.67  0.24  0.13  0.00  0.06  0.04  0.40  0.07  0.26  
16          0.97  0.07  0.09  0.21  0.62  0.80  0.67  0.24  0.13  0.00  0.06  0.04  0.40  0.07  0.26  
17          0.97  0.07  0.09  0.21  0.62  0.80  0.67  0.24  0.13  0.00  0.06  0.04  0.40  0.07  0.26  
18          0.97  0.07  0.09  0.21  0.62  0.80  0.67  0.24  0.13  0.00  0.06  0.04  0.40  0.07  0.26  
19          0.97  0.07  0.09  0.21  0.62  0.80  0.67  0.24  0.13  0.00  0.06  0.04  0.40  0.07  0.26  
20          0.97  0.07  0.09  0.21  0.62  0.80  0.67  0.24  0.13  0.00  0.06  0.04  0.40  0.07  0.26  
21          0.97  0.07  0.09  0.21  0.62  0.80  0.67  0.24  0.13  0.00  0.06  0.04  0.40  0.07  0.26  
22          0.97  0.07  0.09  0.21  0.62  0.80  0.67  0.24  0.13  0.00  0.06  0.04  0.40  0.07  0.26  
23          0.97  0.07  0.09  0.21  0.62  0.80  0.67  0.24  0.13  0.00  0.06  0.04  0.40  0.07  0.26  
24          0.97  0.07  0.09  0.21  0.62  0.80  0.67  0.24  0.13  0.00  0.06  0.04  0.40  0.07  0.26  
25          0.92  0.07  0.08  0.20  0.59  0.76  0.64  0.23  0.12  0.00  0.06  0.04  0.38  0.07  0.25  
26          0.92  0.07  0.08  0.20  0.59  0.76  0.64  0.23  0.12  0.00  0.06  0.04  0.38  0.07  0.25  
27          0.92  0.07  0.08  0.20  0.59  0.76  0.64  0.23  0.12  0.00  0.06  0.04  0.38  0.07  0.25  
28          0.92  0.07  0.08  0.20  0.59  0.76  0.64  0.23  0.12  0.00  0.06  0.04  0.38  0.07  0.25  
29          0.92  0.07  0.08  0.20  0.59  0.76  0.64  0.23  0.12  0.00  0.06  0.04  0.38  0.07  0.25  
30          0.92  0.07  0.08  0.20  0.59  0.76  0.64  0.23  0.12  0.00  0.06  0.04  0.38  0.07  0.25  
31          0.92  0.07  0.08  0.20  0.59  0.76  0.64  0.23  0.12  0.00  0.06  0.04  0.38  0.07  0.25  
32          0.92  0.07  0.08  0.20  0.59  0.76  0.64  0.23  0.12  0.00  0.06  0.04  0.38  0.07  0.25  
33          0.92  0.07  0.08  0.20  0.59  0.76  0.64  0.23  0.12  0.00  0.06  0.04  0.38  0.07  0.25  
34          0.97  0.07  0.09  0.21  0.62  0.80  0.67  0.24  0.13  0.00  0.06  0.04  0.40  0.07  0.26  
35          0.97  0.07  0.09  0.21  0.62  0.80  0.67  0.24  0.13  0.00  0.06  0.04  0.40  0.07  0.26  
36          0.97  0.07  0.09  0.21  0.62  0.80  0.67  0.24  0.13  0.00  0.06  0.04  0.40  0.07  0.26  
37          0.97  0.07  0.09  0.21  0.62  0.80  0.67  0.24  0.13  0.00  0.06  0.04  0.40  0.07  0.26  
38          0.97  0.07  0.09  0.21  0.62  0.80  0.67  0.24  0.13  0.00  0.06  0.04  0.40  0.07  0.26  
39          0.97  0.07  0.09  0.21  0.62  0.80  0.67  0.24  0.13  0.00  0.06  0.04  0.40  0.07  0.26  
40          0.97  0.07  0.09  0.21  0.62  0.80  0.67  0.24  0.13  0.00  0.06  0.04  0.40  0.07  0.26  
41          0.97  0.07  0.09  0.21  0.62  0.80  0.67  0.24  0.13  0.00  0.06  0.04  0.40  0.07  0.26  
42          0.97  0.07  0.09  0.21  0.62  0.80  0.67  0.24  0.13  0.00  0.06  0.04  0.40  0.07  0.26  
43          0.97  0.07  0.09  0.21  0.62  0.80  0.67  0.24  0.13  0.00  0.06  0.04  0.40  0.07  0.26  
44          0.97  0.07  0.09  0.21  0.62  0.80  0.67  0.24  0.13  0.00  0.06  0.04  0.40  0.07  0.26  
45          0.97  0.07  0.09  0.21  0.62  0.80  0.67  0.24  0.13  0.00  0.06  0.04  0.40  0.07  0.26  

[*,*,F2 ]:  K1    K2    K3    K4    K5    K6    K7    K8    K9    K10   K11   K12   K13   K14   K15   :=
1           0.70  0.08  0.04  0.14  0.51  0.67  0.59  0.19  0.09  0.03  0.02  0.05  0.40  0.07  0.18  
2           0.70  0.08  0.04  0.14  0.51  0.67  0.59  0.19  0.09  0.03  0.02  0.05  0.40  0.07  0.18  
3           0.70  0.08  0.04  0.14  0.51  0.67  0.59  0.19  0.09  0.03  0.02  0.05  0.40  0.07  0.18  
4           0.70  0.08  0.04  0.14  0.51  0.67  0.59  0.19  0.09  0.03  0.02  0.05  0.40  0.07  0.18  
5           0.70  0.08  0.04  0.14  0.51  0.67  0.59  0.19  0.09  0.03  0.02  0.05  0.40  0.07  0.18  
6           0.70  0.08  0.04  0.14  0.51  0.67  0.59  0.19  0.09  0.03  0.02  0.05  0.40  0.07  0.18  
7           0.70  0.08  0.04  0.14  0.51  0.67  0.59  0.19  0.09  0.03  0.02  0.05  0.40  0.07  0.18  
8           0.70  0.08  0.04  0.14  0.51  0.67  0.59  0.19  0.09  0.03  0.02  0.05  0.40  0.07  0.18  
9           0.70  0.08  0.04  0.14  0.51  0.67  0.59  0.19  0.09  0.03  0.02  0.05  0.40  0.07  0.18  
10          0.70  0.08  0.04  0.14  0.51  0.67  0.59  0.19  0.09  0.03  0.02  0.05  0.40  0.07  0.18  
11          0.70  0.08  0.04  0.14  0.51  0.67  0.59  0.19  0.09  0.03  0.02  0.05  0.40  0.07  0.18  
12          0.70  0.08  0.04  0.14  0.51  0.67  0.59  0.19  0.09  0.03  0.02  0.05  0.40  0.07  0.18  
13          0.70  0.08  0.04  0.14  0.51  0.67  0.59  0.19  0.09  0.03  0.02  0.05  0.40  0.07  0.18  
14          0.70  0.08  0.04  0.14  0.51  0.67  0.59  0.19  0.09  0.03  0.02  0.05  0.40  0.07  0.18  
15          0.70  0.08  0.04  0.14  0.51  0.67  0.59  0.19  0.09  0.03  0.02  0.05  0.40  0.07  0.18  
16          0.70  0.08  0.04  0.14  0.51  0.67  0.59  0.19  0.09  0.03  0.02  0.05  0.40  0.07  0.18  
17          0.70  0.08  0.04  0.14  0.51  0.67  0.59  0.19  0.09  0.03  0.02  0.05  0.40  0.07  0.18  
18          0.70  0.08  0.04  0.14  0.51  0.67  0.59  0.19  0.09  0.03  0.02  0.05  0.40  0.07  0.18  
19          0.70  0.08  0.04  0.14  0.51  0.67  0.59  0.19  0.09  0.03  0.02  0.05  0.40  0.07  0.18  
20          0.70  0.08  0.04  0.14  0.51  0.67  0.59  0.19  0.09  0.03  0.02  0.05  0.40  0.07  0.18  
21          0.70  0.08  0.04  0.14  0.51  0.67  0.59  0.19  0.09  0.03  0.02  0.05  0.40  0.07  0.18  
22          0.70  0.08  0.04  0.14  0.51  0.67  0.59  0.19  0.09  0.03  0.02  0.05  0.40  0.07  0.18  
23          0.70  0.08  0.04  0.14  0.51  0.67  0.59  0.19  0.09  0.03  0.02  0.05  0.40  0.07  0.18  
24          0.70  0.08  0.04  0.14  0.51  0.67  0.59  0.19  0.09  0.03  0.02  0.05  0.40  0.07  0.18  
25          0.67  0.08  0.04  0.13  0.48  0.64  0.56  0.18  0.08  0.03  0.02  0.05  0.38  0.06  0.17  
26          0.67  0.08  0.04  0.13  0.48  0.64  0.56  0.18  0.08  0.03  0.02  0.05  0.38  0.06  0.17  
27          0.67  0.08  0.04  0.13  0.48  0.64  0.56  0.18  0.08  0.03  0.02  0.05  0.38  0.06  0.17  
28          0.67  0.08  0.04  0.13  0.48  0.64  0.56  0.18  0.08  0.03  0.02  0.05  0.38  0.06  0.17  
29          0.67  0.08  0.04  0.13  0.48  0.64  0.56  0.18  0.08  0.03  0.02  0.05  0.38  0.06  0.17  
30          0.67  0.08  0.04  0.13  0.48  0.64  0.56  0.18  0.08  0.03  0.02  0.05  0.38  0.06  0.17  
31          0.67  0.08  0.04  0.13  0.48  0.64  0.56  0.18  0.08  0.03  0.02  0.05  0.38  0.06  0.17  
32          0.67  0.08  0.04  0.13  0.48  0.64  0.56  0.18  0.08  0.03  0.02  0.05  0.38  0.06  0.17  
33          0.67  0.08  0.04  0.13  0.48  0.64  0.56  0.18  0.08  0.03  0.02  0.05  0.38  0.06  0.17  
34          0.70  0.08  0.04  0.14  0.51  0.67  0.59  0.19  0.09  0.03  0.02  0.05  0.40  0.07  0.18  
35          0.70  0.08  0.04  0.14  0.51  0.67  0.59  0.19  0.09  0.03  0.02  0.05  0.40  0.07  0.18  
36          0.70  0.08  0.04  0.14  0.51  0.67  0.59  0.19  0.09  0.03  0.02  0.05  0.40  0.07  0.18  
37          0.70  0.08  0.04  0.14  0.51  0.67  0.59  0.19  0.09  0.03  0.02  0.05  0.40  0.07  0.18  
38          0.70  0.08  0.04  0.14  0.51  0.67  0.59  0.19  0.09  0.03  0.02  0.05  0.40  0.07  0.18  
39          0.70  0.08  0.04  0.14  0.51  0.67  0.59  0.19  0.09  0.03  0.02  0.05  0.40  0.07  0.18  
40          0.70  0.08  0.04  0.14  0.51  0.67  0.59  0.19  0.09  0.03  0.02  0.05  0.40  0.07  0.18  
41          0.70  0.08  0.04  0.14  0.51  0.67  0.59  0.19  0.09  0.03  0.02  0.05  0.40  0.07  0.18  
42          0.70  0.08  0.04  0.14  0.51  0.67  0.59  0.19  0.09  0.03  0.02  0.05  0.40  0.07  0.18  
43          0.70  0.08  0.04  0.14  0.51  0.67  0.59  0.19  0.09  0.03  0.02  0.05  0.40  0.07  0.18  
44          0.70  0.08  0.04  0.14  0.51  0.67  0.59  0.19  0.09  0.03  0.02  0.05  0.40  0.07  0.18  
45          0.70  0.08  0.04  0.14  0.51  0.67  0.59  0.19  0.09  0.03  0.02  0.05  0.40  0.07  0.18  

[*,*,F3 ]:  K1    K2    K3    K4    K5    K6    K7    K8    K9    K10   K11   K12   K13   K14   K15   :=
1           0.72  0.03  0.00  0.17  0.39  0.72  0.65  0.14  0.18  0.01  0.09  0.02  0.37  0.07  0.17  
2           0.72  0.03  0.00  0.17  0.39  0.72  0.65  0.14  0.18  0.01  0.09  0.02  0.37  0.07  0.17  
3           0.72  0.03  0.00  0.17  0.39  0.72  0.65  0.14  0.18  0.01  0.09  0.02  0.37  0.07  0.17  
4           0.72  0.03  0.00  0.17  0.39  0.72  0.65  0.14  0.18  0.01  0.09  0.02  0.37  0.07  0.17  
5           0.72  0.03  0.00  0.17  0.39  0.72  0.65  0.14  0.18  0.01  0.09  0.02  0.37  0.07  0.17  
6           0.72  0.03  0.00  0.17  0.39  0.72  0.65  0.14  0.18  0.01  0.09  0.02  0.37  0.07  0.17  
7           0.72  0.03  0.00  0.17  0.39  0.72  0.65  0.14  0.18  0.01  0.09  0.02  0.37  0.07  0.17  
8           0.72  0.03  0.00  0.17  0.39  0.72  0.65  0.14  0.18  0.01  0.09  0.02  0.37  0.07  0.17  
9           0.72  0.03  0.00  0.17  0.39  0.72  0.65  0.14  0.18  0.01  0.09  0.02  0.37  0.07  0.17  
10          0.72  0.03  0.00  0.17  0.39  0.72  0.65  0.14  0.18  0.01  0.09  0.02  0.37  0.07  0.17  
11          0.72  0.03  0.00  0.17  0.39  0.72  0.65  0.14  0.18  0.01  0.09  0.02  0.37  0.07  0.17  
12          0.72  0.03  0.00  0.17  0.39  0.72  0.65  0.14  0.18  0.01  0.09  0.02  0.37  0.07  0.17  
13          0.72  0.03  0.00  0.17  0.39  0.72  0.65  0.14  0.18  0.01  0.09  0.02  0.37  0.07  0.17  
14          0.72  0.03  0.00  0.17  0.39  0.72  0.65  0.14  0.18  0.01  0.09  0.02  0.37  0.07  0.17  
15          0.72  0.03  0.00  0.17  0.39  0.72  0.65  0.14  0.18  0.01  0.09  0.02  0.37  0.07  0.17  
16          0.72  0.03  0.00  0.17  0.39  0.72  0.65  0.14  0.18  0.01  0.09  0.02  0.37  0.07  0.17  
17          0.72  0.03  0.00  0.17  0.39  0.72  0.65  0.14  0.18  0.01  0.09  0.02  0.37  0.07  0.17  
18          0.72  0.03  0.00  0.17  0.39  0.72  0.65  0.14  0.18  0.01  0.09  0.02  0.37  0.07  0.17  
19          0.72  0.03  0.00  0.17  0.39  0.72  0.65  0.14  0.18  0.01  0.09  0.02  0.37  0.07  0.17  
20          0.72  0.03  0.00  0.17  0.39  0.72  0.65  0.14  0.18  0.01  0.09  0.02  0.37  0.07  0.17  
21          0.72  0.03  0.00  0.17  0.39  0.72  0.65  0.14  0.18  0.01  0.09  0.02  0.37  0.07  0.17  
22          0.72  0.03  0.00  0.17  0.39  0.72  0.65  0.14  0.18  0.01  0.09  0.02  0.37  0.07  0.17  
23          0.72  0.03  0.00  0.17  0.39  0.72  0.65  0.14  0.18  0.01  0.09  0.02  0.37  0.07  0.17  
24          0.72  0.03  0.00  0.17  0.39  0.72  0.65  0.14  0.18  0.01  0.09  0.02  0.37  0.07  0.17  
25          0.68  0.03  0.00  0.16  0.37  0.68  0.62  0.14  0.17  0.01  0.09  0.02  0.35  0.06  0.16  
26          0.68  0.03  0.00  0.16  0.37  0.68  0.62  0.14  0.17  0.01  0.09  0.02  0.35  0.06  0.16  
27          0.68  0.03  0.00  0.16  0.37  0.68  0.62  0.14  0.17  0.01  0.09  0.02  0.35  0.06  0.16  
28          0.68  0.03  0.00  0.16  0.37  0.68  0.62  0.14  0.17  0.01  0.09  0.02  0.35  0.06  0.16  
29          0.68  0.03  0.00  0.16  0.37  0.68  0.62  0.14  0.17  0.01  0.09  0.02  0.35  0.06  0.16  
30          0.68  0.03  0.00  0.16  0.37  0.68  0.62  0.14  0.17  0.01  0.09  0.02  0.35  0.06  0.16  
31          0.68  0.03  0.00  0.16  0.37  0.68  0.62  0.14  0.17  0.01  0.09  0.02  0.35  0.06  0.16  
32          0.68  0.03  0.00  0.16  0.37  0.68  0.62  0.14  0.17  0.01  0.09  0.02  0.35  0.06  0.16  
33          0.68  0.03  0.00  0.16  0.37  0.68  0.62  0.14  0.17  0.01  0.09  0.02  0.35  0.06  0.16  
34          0.72  0.03  0.00  0.17  0.39  0.72  0.65  0.14  0.18  0.01  0.09  0.02  0.37  0.07  0.17  
35          0.72  0.03  0.00  0.17  0.39  0.72  0.65  0.14  0.18  0.01  0.09  0.02  0.37  0.07  0.17  
36          0.72  0.03  0.00  0.17  0.39  0.72  0.65  0.14  0.18  0.01  0.09  0.02  0.37  0.07  0.17  
37          0.72  0.03  0.00  0.17  0.39  0.72  0.65  0.14  0.18  0.01  0.09  0.02  0.37  0.07  0.17  
38          0.72  0.03  0.00  0.17  0.39  0.72  0.65  0.14  0.18  0.01  0.09  0.02  0.37  0.07  0.17  
39          0.72  0.03  0.00  0.17  0.39  0.72  0.65  0.14  0.18  0.01  0.09  0.02  0.37  0.07  0.17  
40          0.72  0.03  0.00  0.17  0.39  0.72  0.65  0.14  0.18  0.01  0.09  0.02  0.37  0.07  0.17  
41          0.72  0.03  0.00  0.17  0.39  0.72  0.65  0.14  0.18  0.01  0.09  0.02  0.37  0.07  0.17  
42          0.72  0.03  0.00  0.17  0.39  0.72  0.65  0.14  0.18  0.01  0.09  0.02  0.37  0.07  0.17  
43          0.72  0.03  0.00  0.17  0.39  0.72  0.65  0.14  0.18  0.01  0.09  0.02  0.37  0.07  0.17  
44          0.72  0.03  0.00  0.17  0.39  0.72  0.65  0.14  0.18  0.01  0.09  0.02  0.37  0.07  0.17  
45          0.72  0.03  0.00  0.17  0.39  0.72  0.65  0.14  0.18  0.01  0.09  0.02  0.37  0.07  0.17  
; # downloads resource k can do at front f in time t if starting or ending flight

param W: 
	F1        F2        F3        :=
1	811.67    405.84    405.84    
2	3246.69   1623.35   1623.35   
3	3246.69   1623.35   1623.35   
4	3246.69   1623.35   1623.35   
5	3246.69   1623.35   1623.35   
6	3246.69   1623.35   1623.35   
7	3246.69   1623.35   1623.35   
8	3246.69   1623.35   1623.35   
9	3246.69   1623.35   1623.35   
10	3246.69   1623.35   1623.35   
11	3246.69   1623.35   1623.35   
12	3246.69   1623.35   1623.35   
13	3246.69   1623.35   1623.35   
14	3246.69   1623.35   1623.35   
15	3246.69   1623.35   1623.35   
16	3246.69   1623.35   1623.35   
17	3246.69   1623.35   1623.35   
18	3246.69   1623.35   1623.35   
19	1442.97   721.49    721.49    
20	1442.97   721.49    721.49    
21	1442.97   721.49    721.49    
22	1442.97   721.49    721.49    
23	1442.97   721.49    721.49    
24	1442.97   721.49    721.49    
25	1442.97   721.49    721.49    
26	1442.97   721.49    721.49    
27	1442.97   721.49    721.49    
28	1442.97   721.49    721.49    
29	1442.97   721.49    721.49    
30	1442.97   721.49    721.49    
31	1442.97   721.49    721.49    
32	1442.97   721.49    721.49    
33	1442.97   721.49    721.49    
34	1442.97   721.49    721.49    
35	1442.97   721.49    721.49    
36	1442.97   721.49    721.49    
37	1442.97   721.49    721.49    
38	1442.97   721.49    721.49    
39	1442.97   721.49    721.49    
40	1442.97   721.49    721.49    
41	1442.97   721.49    721.49    
42	1442.97   721.49    721.49    
43	1442.97   721.49    721.49    
44	1442.97   721.49    721.49    
45	360.74    180.37    180.37    
; # water needed at front f in time slot t

param M := 100000000; 

param a1:= 10000000;

param a2:= 100;

param a3:= 0.0001;
